
  32    4
  10   10   10   10

   0   0   0   0   0   4 2 13 22 31 
  10   0   1   1   1   1 3 
   8   0   4   3   4   1 4 
   5   0   3   4   4   1 5 
   4   1   3   3   0   2 30 6 
   8   7   3   5   0   1 7 
   6   4   0   3   2   1 8 
   2   4   4   3   0   1 9 
   9   6   5   0   1   1 10 
   1   3   0   8   2   2 29 11 
   1   0   4   5   3   1 12 
   2   0   2   5   3   1 14 
   3   3   5   0   4   1 14 
   9   3   2   0   4   1 15 
   3   0   4   5   5   1 16 
  10   5   1   0   1   1 17 
   8   2   4   3   0   1 18 
   1   3   0   6   3   1 19 
   1   5   3   0   8   2 28 20 
   9   3   6   0   5   1 21 
   7   0   5   4   7   1 23 
   2   4   4   0   6   1 23 
  10   1   3   0   7   1 24 
   2   0  10   2   5   1 25 
   8   5   0   3   2   1 26 
   3   6   3   0   5   1 27 
   5   0   6   9   8   1 32
   9   0   4   4   4   1 32
   6   6   4   0   4   1 32
   8   3   7   1   0   1 32
   8   6   0   3   2   1 32
   0   0   0   0   0   0 
